NAME : traveling-santa-2018-prime-paths.29392.tour
COMMENT : Length = 29392
COMMENT : Found by LKH [Keld Helsgaun] Sun Jun 12 19:59:30 2022
TYPE : TOUR
DIMENSION : 100
TOUR_SECTION
1
58
83
59
46
91
40
61
13
94
8
72
98
36
80
67
53
82
20
73
5
17
21
86
35
99
22
97
12
4
51
23
69
9
45
38
52
16
81
65
29
49
75
55
10
24
44
11
34
7
79
43
84
26
88
50
74
27
95
31
87
90
25
85
96
33
18
77
70
54
56
64
60
14
76
37
6
3
66
39
41
62
42
100
89
30
48
57
71
15
2
32
63
47
19
92
68
93
28
78
-1
EOF
